c Result of efficient AIG-to-CNF conversion using package CNF
p cnf 298 1048
-2 3 108 210 215 0
-2 -3 -108 210 215 0
2 -210 0
2 3 -108 0
2 -215 0
2 -3 108 0
3 -4 105 0
3 4 -105 0
-3 4 105 0
-3 -4 -105 0
4 -235 -36 0
4 -235 -5 0
4 -5 -36 0
-4 5 36 0
-4 235 36 0
-4 235 5 0
-5 -6 -7 0
-5 6 7 0
5 6 -7 0
5 -6 7 0
6 235 -267 0
-6 -235 0
-6 267 0
7 -236 -268 0
7 -268 -8 0
-7 268 0
-7 236 8 0
8 -237 -269 0
8 -269 -9 0
-8 269 0
-8 237 9 0
9 -238 -270 0
9 -270 -10 0
-9 270 0
-9 238 10 0
10 -239 -271 0
10 -271 -11 0
-10 271 0
-10 239 11 0
11 -240 -272 0
11 -272 -12 0
-11 272 0
-11 240 12 0
12 -241 -273 0
12 -273 -13 0
-12 273 0
-12 241 13 0
13 -242 -274 0
13 -274 -14 0
-13 274 0
-13 242 14 0
14 -243 -275 0
14 -275 -15 0
-14 275 0
-14 243 15 0
15 -244 -276 0
15 -276 -16 0
-15 276 0
-15 244 16 0
16 -245 -277 0
16 -277 -17 0
-16 277 0
-16 245 17 0
17 -246 -278 0
17 -278 -18 0
-17 278 0
-17 246 18 0
18 -247 -279 0
18 -279 -19 0
-18 279 0
-18 247 19 0
19 -248 -280 0
19 -280 -20 0
-19 280 0
-19 248 20 0
20 -249 -281 0
20 -281 -21 0
-20 281 0
-20 249 21 0
21 -250 -282 0
21 -282 -22 0
-21 282 0
-21 250 22 0
22 -251 -283 0
22 -283 -23 0
-22 283 0
-22 251 23 0
23 -252 -284 0
23 -284 -24 0
-23 284 0
-23 252 24 0
24 -253 -285 0
24 -285 -25 0
-24 285 0
-24 253 25 0
25 -254 -286 0
25 -286 -26 0
-25 286 0
-25 254 26 0
26 -255 -287 0
26 -287 -27 0
-26 287 0
-26 255 27 0
27 -256 -288 0
27 -288 -28 0
-27 288 0
-27 256 28 0
28 -257 -289 0
28 -289 -29 0
-28 289 0
-28 257 29 0
29 -258 -290 0
29 -290 -30 0
-29 290 0
-29 258 30 0
30 -259 -291 0
30 -291 -31 0
-30 291 0
-30 259 31 0
31 -260 -292 0
31 -292 -32 0
-31 292 0
-31 260 32 0
32 -261 -293 0
32 -293 -33 0
-32 293 0
-32 261 33 0
33 -262 -294 0
33 -294 -34 0
-33 294 0
-33 262 34 0
34 -263 -295 0
34 -295 -35 0
-34 295 0
-34 263 35 0
-35 296 0
-35 264 265 0
-35 264 297 0
35 -264 -296 0
35 -265 -296 -297 0
36 -236 -39 0
36 -236 -37 0
36 -37 -39 0
-36 37 39 0
-36 236 39 0
-36 236 37 0
-37 -8 -38 0
-37 8 38 0
37 8 -38 0
37 -8 38 0
38 236 -268 0
-38 -236 0
-38 268 0
39 -237 -42 0
39 -237 -40 0
39 -40 -42 0
-39 40 42 0
-39 237 42 0
-39 237 40 0
-40 -9 -41 0
-40 9 41 0
40 9 -41 0
40 -9 41 0
41 237 -269 0
-41 -237 0
-41 269 0
42 -238 -45 0
42 -238 -43 0
42 -43 -45 0
-42 43 45 0
-42 238 45 0
-42 238 43 0
-43 -10 -44 0
-43 10 44 0
43 10 -44 0
43 -10 44 0
44 238 -270 0
-44 -238 0
-44 270 0
45 -239 -46 0
45 -271 11 -46 0
45 -239 -11 0
45 271 -11 -46 0
-45 239 46 0
-45 239 271 11 0
-45 11 46 0
-45 239 -271 -11 0
46 -240 -49 0
46 -240 -47 0
46 -47 -49 0
-46 47 49 0
-46 240 49 0
-46 240 47 0
-47 -12 -48 0
-47 12 48 0
47 12 -48 0
47 -12 48 0
48 240 -272 0
-48 -240 0
-48 272 0
49 -241 -50 0
49 -273 13 -50 0
49 -241 -13 0
49 273 -13 -50 0
-49 241 50 0
-49 241 273 13 0
-49 13 50 0
-49 241 -273 -13 0
50 -242 -53 0
50 -242 -51 0
50 -51 -53 0
-50 51 53 0
-50 242 53 0
-50 242 51 0
-51 -14 -52 0
-51 14 52 0
51 14 -52 0
51 -14 52 0
52 242 -274 0
-52 -242 0
-52 274 0
53 -243 -54 0
53 -275 15 -54 0
53 -243 -15 0
53 275 -15 -54 0
-53 243 54 0
-53 243 275 15 0
-53 15 54 0
-53 243 -275 -15 0
54 -244 -57 0
54 -244 -55 0
54 -55 -57 0
-54 55 57 0
-54 244 57 0
-54 244 55 0
-55 -16 -56 0
-55 16 56 0
55 16 -56 0
55 -16 56 0
56 244 -276 0
-56 -244 0
-56 276 0
57 -245 -60 0
57 -245 -58 0
57 -58 -60 0
-57 58 60 0
-57 245 60 0
-57 245 58 0
-58 -17 -59 0
-58 17 59 0
58 17 -59 0
58 -17 59 0
59 245 -277 0
-59 -245 0
-59 277 0
60 -246 -63 0
60 -246 -61 0
60 -61 -63 0
-60 61 63 0
-60 246 63 0
-60 246 61 0
-61 -18 -62 0
-61 18 62 0
61 18 -62 0
61 -18 62 0
62 246 -278 0
-62 -246 0
-62 278 0
63 -247 -64 0
63 -279 19 -64 0
63 -247 -19 0
63 279 -19 -64 0
-63 247 64 0
-63 247 279 19 0
-63 19 64 0
-63 247 -279 -19 0
64 -248 -67 0
64 -248 -65 0
64 -65 -67 0
-64 65 67 0
-64 248 67 0
-64 248 65 0
-65 -20 -66 0
-65 20 66 0
65 20 -66 0
65 -20 66 0
66 248 -280 0
-66 -248 0
-66 280 0
67 -249 -70 0
67 -249 -68 0
67 -68 -70 0
-67 68 70 0
-67 249 70 0
-67 249 68 0
-68 -21 -69 0
-68 21 69 0
68 21 -69 0
68 -21 69 0
69 249 -281 0
-69 -249 0
-69 281 0
70 -250 -73 0
70 -250 -71 0
70 -71 -73 0
-70 71 73 0
-70 250 73 0
-70 250 71 0
-71 -22 -72 0
-71 22 72 0
71 22 -72 0
71 -22 72 0
72 250 -282 0
-72 -250 0
-72 282 0
73 -251 -74 0
73 -283 23 -74 0
73 -251 -23 0
73 283 -23 -74 0
-73 251 74 0
-73 251 283 23 0
-73 23 74 0
-73 251 -283 -23 0
74 -252 -77 0
74 -252 -75 0
74 -75 -77 0
-74 75 77 0
-74 252 77 0
-74 252 75 0
-75 -24 -76 0
-75 24 76 0
75 24 -76 0
75 -24 76 0
76 252 -284 0
-76 -252 0
-76 284 0
77 -253 -80 0
77 -253 -78 0
77 -78 -80 0
-77 78 80 0
-77 253 80 0
-77 253 78 0
-78 -25 -79 0
-78 25 79 0
78 25 -79 0
78 -25 79 0
79 253 -285 0
-79 -253 0
-79 285 0
80 -254 -83 0
80 -254 -81 0
80 -81 -83 0
-80 81 83 0
-80 254 83 0
-80 254 81 0
-81 -26 -82 0
-81 26 82 0
81 26 -82 0
81 -26 82 0
82 254 -286 0
-82 -254 0
-82 286 0
83 -255 -84 0
83 -287 27 -84 0
83 -255 -27 0
83 287 -27 -84 0
-83 255 84 0
-83 255 287 27 0
-83 27 84 0
-83 255 -287 -27 0
84 -256 -87 0
84 -256 -85 0
84 -85 -87 0
-84 85 87 0
-84 256 87 0
-84 256 85 0
-85 -28 -86 0
-85 28 86 0
85 28 -86 0
85 -28 86 0
86 256 -288 0
-86 -256 0
-86 288 0
87 -257 -90 0
87 -257 -88 0
87 -88 -90 0
-87 88 90 0
-87 257 90 0
-87 257 88 0
-88 -29 -89 0
-88 29 89 0
88 29 -89 0
88 -29 89 0
89 257 -289 0
-89 -257 0
-89 289 0
90 -258 -93 0
90 -258 -91 0
90 -91 -93 0
-90 91 93 0
-90 258 93 0
-90 258 91 0
-91 -30 -92 0
-91 30 92 0
91 30 -92 0
91 -30 92 0
92 258 -290 0
-92 -258 0
-92 290 0
93 -259 -94 0
93 -291 31 -94 0
93 -259 -31 0
93 291 -31 -94 0
-93 259 94 0
-93 259 291 31 0
-93 31 94 0
-93 259 -291 -31 0
94 -260 -95 0
94 -95 -97 0
94 -260 -97 0
-94 260 97 0
-94 95 97 0
-94 260 95 0
95 32 -96 0
95 -32 96 0
-95 -32 -96 0
-95 32 96 0
96 260 -292 0
-96 -260 0
-96 292 0
97 -261 -98 0
97 -98 -100 0
97 -261 -100 0
-97 261 100 0
-97 98 100 0
-97 261 98 0
98 33 -99 0
98 -33 99 0
-98 -33 -99 0
-98 33 99 0
99 261 -293 0
-99 -261 0
-99 293 0
100 -262 -101 0
100 -101 -103 0
100 -262 -103 0
-100 262 103 0
-100 101 103 0
-100 262 101 0
101 34 -102 0
101 -34 102 0
-101 -34 -102 0
-101 34 102 0
102 262 -294 0
-102 -262 0
-102 294 0
103 -263 -104 0
103 295 -35 -104 0
103 -263 -35 0
103 -295 35 -104 0
-103 263 104 0
-103 263 295 35 0
-103 35 104 0
-103 263 -295 -35 0
104 -264 -265 -297 0
-104 264 0
-104 265 0
-104 297 0
-105 106 107 0
-105 -106 -107 0
105 -106 107 0
105 106 -107 0
106 -235 -267 0
106 -267 -7 0
-106 267 0
-106 235 7 0
-107 234 266 0
107 -234 0
107 -266 0
108 -109 208 0
108 109 -208 0
-108 109 208 0
-108 -109 -208 0
109 -267 -141 0
109 -267 -110 0
109 -110 -141 0
-109 110 141 0
-109 267 141 0
-109 267 110 0
-110 -111 -112 0
-110 111 112 0
110 111 -112 0
110 -111 112 0
111 -235 267 0
-111 235 0
-111 -267 0
112 -236 -268 0
112 -236 -113 0
-112 236 0
-112 268 113 0
113 -237 -269 0
113 -237 -114 0
-113 237 0
-113 269 114 0
114 -238 -270 0
114 -238 -115 0
-114 238 0
-114 270 115 0
115 -239 -271 0
115 -239 -116 0
-115 239 0
-115 271 116 0
116 -240 -272 0
116 -240 -117 0
-116 240 0
-116 272 117 0
117 -241 -273 0
117 -241 -118 0
-117 241 0
-117 273 118 0
118 -242 -274 0
118 -242 -119 0
-118 242 0
-118 274 119 0
119 -243 -275 0
119 -243 -120 0
-119 243 0
-119 275 120 0
120 -244 -276 0
120 -244 -121 0
-120 244 0
-120 276 121 0
121 -245 -277 0
121 -245 -122 0
-121 245 0
-121 277 122 0
122 -246 -278 0
122 -246 -123 0
-122 246 0
-122 278 123 0
123 -247 -279 0
123 -247 -124 0
-123 247 0
-123 279 124 0
124 -248 -280 0
124 -248 -125 0
-124 248 0
-124 280 125 0
125 -249 -281 0
125 -249 -126 0
-125 249 0
-125 281 126 0
126 -250 -282 0
126 -250 -127 0
-126 250 0
-126 282 127 0
127 -251 -283 0
127 -251 -128 0
-127 251 0
-127 283 128 0
128 -252 -284 0
128 -252 -129 0
-128 252 0
-128 284 129 0
129 -253 -285 0
129 -253 -130 0
-129 253 0
-129 285 130 0
130 -254 -286 0
130 -254 -131 0
-130 254 0
-130 286 131 0
131 -255 -287 0
131 -255 -132 0
-131 255 0
-131 287 132 0
132 -256 -288 0
132 -256 -133 0
-132 256 0
-132 288 133 0
133 -257 -289 0
133 -257 -134 0
-133 257 0
-133 289 134 0
134 -258 -290 0
134 -258 -135 0
-134 258 0
-134 290 135 0
135 -259 -291 0
135 -259 -136 0
-135 259 0
-135 291 136 0
136 -260 -292 0
136 -260 -137 0
-136 260 0
-136 292 137 0
137 -261 -293 0
137 -261 -138 0
-137 261 0
-137 293 138 0
138 -262 -294 0
138 -262 -139 0
-138 262 0
-138 294 139 0
139 -263 -295 0
139 -263 -140 0
-139 263 0
-139 295 140 0
-140 264 0
-140 296 297 0
-140 265 296 0
140 -264 -296 0
140 -264 -265 -297 0
141 -268 -144 0
141 -268 -142 0
141 -142 -144 0
-141 142 144 0
-141 268 144 0
-141 268 142 0
-142 -113 -143 0
-142 113 143 0
142 113 -143 0
142 -113 143 0
143 -236 268 0
-143 236 0
-143 -268 0
144 -269 -147 0
144 -269 -145 0
144 -145 -147 0
-144 145 147 0
-144 269 147 0
-144 269 145 0
-145 -114 -146 0
-145 114 146 0
145 114 -146 0
145 -114 146 0
146 -237 269 0
-146 237 0
-146 -269 0
147 -270 -150 0
147 -270 -148 0
147 -148 -150 0
-147 148 150 0
-147 270 150 0
-147 270 148 0
-148 -115 -149 0
-148 115 149 0
148 115 -149 0
148 -115 149 0
149 -238 270 0
-149 238 0
-149 -270 0
150 -271 -151 0
150 -239 116 -151 0
150 -271 -116 0
150 239 -116 -151 0
-150 271 151 0
-150 239 271 116 0
-150 116 151 0
-150 -239 271 -116 0
151 -272 -154 0
151 -272 -152 0
151 -152 -154 0
-151 152 154 0
-151 272 154 0
-151 272 152 0
-152 -117 -153 0
-152 117 153 0
152 117 -153 0
152 -117 153 0
153 -240 272 0
-153 240 0
-153 -272 0
154 -273 -157 0
154 -273 -155 0
154 -155 -157 0
-154 155 157 0
-154 273 157 0
-154 273 155 0
-155 -118 -156 0
-155 118 156 0
155 118 -156 0
155 -118 156 0
156 -241 273 0
-156 241 0
-156 -273 0
157 -274 -160 0
157 -274 -158 0
157 -158 -160 0
-157 158 160 0
-157 274 160 0
-157 274 158 0
-158 -119 -159 0
-158 119 159 0
158 119 -159 0
158 -119 159 0
159 -242 274 0
-159 242 0
-159 -274 0
160 -275 -161 0
160 -243 120 -161 0
160 -275 -120 0
160 243 -120 -161 0
-160 275 161 0
-160 243 275 120 0
-160 120 161 0
-160 -243 275 -120 0
161 -276 -164 0
161 -276 -162 0
161 -162 -164 0
-161 162 164 0
-161 276 164 0
-161 276 162 0
-162 -121 -163 0
-162 121 163 0
162 121 -163 0
162 -121 163 0
163 -244 276 0
-163 244 0
-163 -276 0
164 -277 -167 0
164 -277 -165 0
164 -165 -167 0
-164 165 167 0
-164 277 167 0
-164 277 165 0
-165 -122 -166 0
-165 122 166 0
165 122 -166 0
165 -122 166 0
166 -245 277 0
-166 245 0
-166 -277 0
167 -278 -170 0
167 -278 -168 0
167 -168 -170 0
-167 168 170 0
-167 278 170 0
-167 278 168 0
-168 -123 -169 0
-168 123 169 0
168 123 -169 0
168 -123 169 0
169 -246 278 0
-169 246 0
-169 -278 0
170 -279 -171 0
170 -247 124 -171 0
170 -279 -124 0
170 247 -124 -171 0
-170 279 171 0
-170 247 279 124 0
-170 124 171 0
-170 -247 279 -124 0
171 -280 -174 0
171 -280 -172 0
171 -172 -174 0
-171 172 174 0
-171 280 174 0
-171 280 172 0
-172 -125 -173 0
-172 125 173 0
172 125 -173 0
172 -125 173 0
173 -248 280 0
-173 248 0
-173 -280 0
174 -281 -177 0
174 -281 -175 0
174 -175 -177 0
-174 175 177 0
-174 281 177 0
-174 281 175 0
-175 -126 -176 0
-175 126 176 0
175 126 -176 0
175 -126 176 0
176 -249 281 0
-176 249 0
-176 -281 0
177 -282 -180 0
177 -282 -178 0
177 -178 -180 0
-177 178 180 0
-177 282 180 0
-177 282 178 0
-178 -127 -179 0
-178 127 179 0
178 127 -179 0
178 -127 179 0
179 -250 282 0
-179 250 0
-179 -282 0
180 -283 -181 0
180 -251 128 -181 0
180 -283 -128 0
180 251 -128 -181 0
-180 283 181 0
-180 251 283 128 0
-180 128 181 0
-180 -251 283 -128 0
181 -284 -184 0
181 -284 -182 0
181 -182 -184 0
-181 182 184 0
-181 284 184 0
-181 284 182 0
-182 -129 -183 0
-182 129 183 0
182 129 -183 0
182 -129 183 0
183 -252 284 0
-183 252 0
-183 -284 0
184 -285 -187 0
184 -285 -185 0
184 -185 -187 0
-184 185 187 0
-184 285 187 0
-184 285 185 0
-185 -130 -186 0
-185 130 186 0
185 130 -186 0
185 -130 186 0
186 -253 285 0
-186 253 0
-186 -285 0
187 -286 -190 0
187 -286 -188 0
187 -188 -190 0
-187 188 190 0
-187 286 190 0
-187 286 188 0
-188 -131 -189 0
-188 131 189 0
188 131 -189 0
188 -131 189 0
189 -254 286 0
-189 254 0
-189 -286 0
190 -287 -191 0
190 -255 132 -191 0
190 -287 -132 0
190 255 -132 -191 0
-190 287 191 0
-190 255 287 132 0
-190 132 191 0
-190 -255 287 -132 0
191 -288 -194 0
191 -288 -192 0
191 -192 -194 0
-191 192 194 0
-191 288 194 0
-191 288 192 0
-192 -133 -193 0
-192 133 193 0
192 133 -193 0
192 -133 193 0
193 -256 288 0
-193 256 0
-193 -288 0
194 -289 -197 0
194 -289 -195 0
194 -195 -197 0
-194 195 197 0
-194 289 197 0
-194 289 195 0
-195 -134 -196 0
-195 134 196 0
195 134 -196 0
195 -134 196 0
196 -257 289 0
-196 257 0
-196 -289 0
197 -290 -198 0
197 -258 135 -198 0
197 -290 -135 0
197 258 -135 -198 0
-197 290 198 0
-197 258 290 135 0
-197 135 198 0
-197 -258 290 -135 0
198 -291 -199 0
198 -259 136 -199 0
198 -291 -136 0
198 259 -136 -199 0
-198 291 199 0
-198 259 291 136 0
-198 136 199 0
-198 -259 291 -136 0
199 -292 -200 0
199 -260 137 -200 0
199 -292 -137 0
199 260 -137 -200 0
-199 292 200 0
-199 260 292 137 0
-199 137 200 0
-199 -260 292 -137 0
200 -293 -201 0
200 -201 -203 0
200 -293 -203 0
-200 293 203 0
-200 201 203 0
-200 293 201 0
201 138 -202 0
201 -138 202 0
-201 -138 -202 0
-201 138 202 0
202 -261 293 0
-202 261 0
-202 -293 0
203 -294 -204 0
203 -204 -206 0
203 -294 -206 0
-203 294 206 0
-203 204 206 0
-203 294 204 0
204 139 -205 0
204 -139 205 0
-204 -139 -205 0
-204 139 205 0
205 -262 294 0
-205 262 0
-205 -294 0
206 -295 -207 0
206 263 -207 -140 0
206 -295 -140 0
206 -263 -207 140 0
-206 295 207 0
-206 -263 295 -140 0
-206 207 140 0
-206 263 295 140 0
207 -265 -296 -297 0
-207 265 0
-207 296 0
-207 297 0
-208 -107 -209 0
-208 107 209 0
208 107 -209 0
208 -107 209 0
209 -235 -267 0
209 -235 -112 0
-209 235 0
-209 267 112 0
210 211 -213 0
210 -211 213 0
-210 -211 -213 0
-210 211 213 0
211 36 -212 0
211 -36 212 0
-211 -36 -212 0
-211 36 212 0
212 -235 5 0
212 235 -5 0
-212 235 5 0
-212 -235 -5 0
213 141 -214 0
213 -141 214 0
-213 -141 -214 0
-213 141 214 0
214 -267 110 0
214 267 -110 0
-214 267 110 0
-214 -267 -110 0
-215 216 221 223 225 0
-215 216 -221 -223 225 0
215 -225 0
215 -221 223 0
215 -216 0
215 221 -223 0
216 217 -219 0
216 -217 219 0
-216 -217 -219 0
-216 217 219 0
217 39 -218 0
217 -39 218 0
-217 -39 -218 0
-217 39 218 0
218 -236 37 0
218 236 -37 0
-218 236 37 0
-218 -236 -37 0
219 144 -220 0
219 -144 220 0
-219 -144 -220 0
-219 144 220 0
220 -268 142 0
220 268 -142 0
-220 268 142 0
-220 -268 -142 0
221 42 -222 0
221 -42 222 0
-221 -42 -222 0
-221 42 222 0
222 -237 40 0
222 237 -40 0
-222 237 40 0
-222 -237 -40 0
223 147 -224 0
223 -147 224 0
-223 -147 -224 0
-223 147 224 0
224 -269 145 0
224 269 -145 0
-224 269 145 0
-224 -269 -145 0
-225 226 228 -230 -232 0
-225 -226 -228 -230 -232 0
-225 226 228 230 232 0
-225 -226 -228 230 232 0
225 226 -228 0
225 -226 228 0
225 230 -232 0
225 -230 232 0
226 45 -227 0
226 -45 227 0
-226 -45 -227 0
-226 45 227 0
227 -238 43 0
227 238 -43 0
-227 238 43 0
-227 -238 -43 0
228 150 -229 0
228 -150 229 0
-228 -150 -229 0
-228 150 229 0
229 -270 148 0
229 270 -148 0
-229 270 148 0
-229 -270 -148 0
230 67 -231 0
230 -67 231 0
-230 -67 -231 0
-230 67 231 0
231 -248 65 0
231 248 -65 0
-231 248 65 0
-231 -248 -65 0
232 174 -233 0
232 -174 233 0
-232 -174 -233 0
-232 174 233 0
233 -280 172 0
233 280 -172 0
-233 280 172 0
-233 -280 -172 0
-298 0
2 0

